<instance format="XCSP3" type="CSP">
  <variables>
    <array id="x" note="x[i] is the ith value of the first set" size="[115]"> 1..230 </array>
    <array id="y" note="y[i] is the ith value of the second set" size="[115]"> 1..230 </array>
    <array id="aux_gb" note="aux_gb[i] is the ith auxiliary variable having been automatically introduced" size="[230]"> 1..52900 </array>
  </variables>
  <constraints>
    <allDifferent> x[] y[] </allDifferent>
    <group class="power1">
      <sum>
        <list> %... </list>
        <condition> (eq,13282) </condition>
      </sum>
      <args> x[] </args>
      <args> y[] </args>
    </group>
    <group class="power2">
      <sum>
        <list> %... </list>
        <condition> (eq,2041077) </condition>
      </sum>
      <args> aux_gb[0..114] </args>
      <args> aux_gb[115..229] </args>
    </group>
    <block class="symmetry-breaking">
      <intension> eq(x[0],1) </intension>
      <group>
        <intension> lt(%0,%1) </intension>
        <args> x[0] x[1] </args>
        <args> x[1] x[2] </args>
        <args> x[2] x[3] </args>
        <args> x[3] x[4] </args>
        <args> x[4] x[5] </args>
        <args> x[5] x[6] </args>
        <args> x[6] x[7] </args>
        <args> x[7] x[8] </args>
        <args> x[8] x[9] </args>
        <args> x[9] x[10] </args>
        <args> x[10] x[11] </args>
        <args> x[11] x[12] </args>
        <args> x[12] x[13] </args>
        <args> x[13] x[14] </args>
        <args> x[14] x[15] </args>
        <args> x[15] x[16] </args>
        <args> x[16] x[17] </args>
        <args> x[17] x[18] </args>
        <args> x[18] x[19] </args>
        <args> x[19] x[20] </args>
        <args> x[20] x[21] </args>
        <args> x[21] x[22] </args>
        <args> x[22] x[23] </args>
        <args> x[23] x[24] </args>
        <args> x[24] x[25] </args>
        <args> x[25] x[26] </args>
        <args> x[26] x[27] </args>
        <args> x[27] x[28] </args>
        <args> x[28] x[29] </args>
        <args> x[29] x[30] </args>
        <args> x[30] x[31] </args>
        <args> x[31] x[32] </args>
        <args> x[32] x[33] </args>
        <args> x[33] x[34] </args>
        <args> x[34] x[35] </args>
        <args> x[35] x[36] </args>
        <args> x[36] x[37] </args>
        <args> x[37] x[38] </args>
        <args> x[38] x[39] </args>
        <args> x[39] x[40] </args>
        <args> x[40] x[41] </args>
        <args> x[41] x[42] </args>
        <args> x[42] x[43] </args>
        <args> x[43] x[44] </args>
        <args> x[44] x[45] </args>
        <args> x[45] x[46] </args>
        <args> x[46] x[47] </args>
        <args> x[47] x[48] </args>
        <args> x[48] x[49] </args>
        <args> x[49] x[50] </args>
        <args> x[50] x[51] </args>
        <args> x[51] x[52] </args>
        <args> x[52] x[53] </args>
        <args> x[53] x[54] </args>
        <args> x[54] x[55] </args>
        <args> x[55] x[56] </args>
        <args> x[56] x[57] </args>
        <args> x[57] x[58] </args>
        <args> x[58] x[59] </args>
        <args> x[59] x[60] </args>
        <args> x[60] x[61] </args>
        <args> x[61] x[62] </args>
        <args> x[62] x[63] </args>
        <args> x[63] x[64] </args>
        <args> x[64] x[65] </args>
        <args> x[65] x[66] </args>
        <args> x[66] x[67] </args>
        <args> x[67] x[68] </args>
        <args> x[68] x[69] </args>
        <args> x[69] x[70] </args>
        <args> x[70] x[71] </args>
        <args> x[71] x[72] </args>
        <args> x[72] x[73] </args>
        <args> x[73] x[74] </args>
        <args> x[74] x[75] </args>
        <args> x[75] x[76] </args>
        <args> x[76] x[77] </args>
        <args> x[77] x[78] </args>
        <args> x[78] x[79] </args>
        <args> x[79] x[80] </args>
        <args> x[80] x[81] </args>
        <args> x[81] x[82] </args>
        <args> x[82] x[83] </args>
        <args> x[83] x[84] </args>
        <args> x[84] x[85] </args>
        <args> x[85] x[86] </args>
        <args> x[86] x[87] </args>
        <args> x[87] x[88] </args>
        <args> x[88] x[89] </args>
        <args> x[89] x[90] </args>
        <args> x[90] x[91] </args>
        <args> x[91] x[92] </args>
        <args> x[92] x[93] </args>
        <args> x[93] x[94] </args>
        <args> x[94] x[95] </args>
        <args> x[95] x[96] </args>
        <args> x[96] x[97] </args>
        <args> x[97] x[98] </args>
        <args> x[98] x[99] </args>
        <args> x[99] x[100] </args>
        <args> x[100] x[101] </args>
        <args> x[101] x[102] </args>
        <args> x[102] x[103] </args>
        <args> x[103] x[104] </args>
        <args> x[104] x[105] </args>
        <args> x[105] x[106] </args>
        <args> x[106] x[107] </args>
        <args> x[107] x[108] </args>
        <args> x[108] x[109] </args>
        <args> x[109] x[110] </args>
        <args> x[110] x[111] </args>
        <args> x[111] x[112] </args>
        <args> x[112] x[113] </args>
        <args> x[113] x[114] </args>
        <args> y[0] y[1] </args>
        <args> y[1] y[2] </args>
        <args> y[2] y[3] </args>
        <args> y[3] y[4] </args>
        <args> y[4] y[5] </args>
        <args> y[5] y[6] </args>
        <args> y[6] y[7] </args>
        <args> y[7] y[8] </args>
        <args> y[8] y[9] </args>
        <args> y[9] y[10] </args>
        <args> y[10] y[11] </args>
        <args> y[11] y[12] </args>
        <args> y[12] y[13] </args>
        <args> y[13] y[14] </args>
        <args> y[14] y[15] </args>
        <args> y[15] y[16] </args>
        <args> y[16] y[17] </args>
        <args> y[17] y[18] </args>
        <args> y[18] y[19] </args>
        <args> y[19] y[20] </args>
        <args> y[20] y[21] </args>
        <args> y[21] y[22] </args>
        <args> y[22] y[23] </args>
        <args> y[23] y[24] </args>
        <args> y[24] y[25] </args>
        <args> y[25] y[26] </args>
        <args> y[26] y[27] </args>
        <args> y[27] y[28] </args>
        <args> y[28] y[29] </args>
        <args> y[29] y[30] </args>
        <args> y[30] y[31] </args>
        <args> y[31] y[32] </args>
        <args> y[32] y[33] </args>
        <args> y[33] y[34] </args>
        <args> y[34] y[35] </args>
        <args> y[35] y[36] </args>
        <args> y[36] y[37] </args>
        <args> y[37] y[38] </args>
        <args> y[38] y[39] </args>
        <args> y[39] y[40] </args>
        <args> y[40] y[41] </args>
        <args> y[41] y[42] </args>
        <args> y[42] y[43] </args>
        <args> y[43] y[44] </args>
        <args> y[44] y[45] </args>
        <args> y[45] y[46] </args>
        <args> y[46] y[47] </args>
        <args> y[47] y[48] </args>
        <args> y[48] y[49] </args>
        <args> y[49] y[50] </args>
        <args> y[50] y[51] </args>
        <args> y[51] y[52] </args>
        <args> y[52] y[53] </args>
        <args> y[53] y[54] </args>
        <args> y[54] y[55] </args>
        <args> y[55] y[56] </args>
        <args> y[56] y[57] </args>
        <args> y[57] y[58] </args>
        <args> y[58] y[59] </args>
        <args> y[59] y[60] </args>
        <args> y[60] y[61] </args>
        <args> y[61] y[62] </args>
        <args> y[62] y[63] </args>
        <args> y[63] y[64] </args>
        <args> y[64] y[65] </args>
        <args> y[65] y[66] </args>
        <args> y[66] y[67] </args>
        <args> y[67] y[68] </args>
        <args> y[68] y[69] </args>
        <args> y[69] y[70] </args>
        <args> y[70] y[71] </args>
        <args> y[71] y[72] </args>
        <args> y[72] y[73] </args>
        <args> y[73] y[74] </args>
        <args> y[74] y[75] </args>
        <args> y[75] y[76] </args>
        <args> y[76] y[77] </args>
        <args> y[77] y[78] </args>
        <args> y[78] y[79] </args>
        <args> y[79] y[80] </args>
        <args> y[80] y[81] </args>
        <args> y[81] y[82] </args>
        <args> y[82] y[83] </args>
        <args> y[83] y[84] </args>
        <args> y[84] y[85] </args>
        <args> y[85] y[86] </args>
        <args> y[86] y[87] </args>
        <args> y[87] y[88] </args>
        <args> y[88] y[89] </args>
        <args> y[89] y[90] </args>
        <args> y[90] y[91] </args>
        <args> y[91] y[92] </args>
        <args> y[92] y[93] </args>
        <args> y[93] y[94] </args>
        <args> y[94] y[95] </args>
        <args> y[95] y[96] </args>
        <args> y[96] y[97] </args>
        <args> y[97] y[98] </args>
        <args> y[98] y[99] </args>
        <args> y[99] y[100] </args>
        <args> y[100] y[101] </args>
        <args> y[101] y[102] </args>
        <args> y[102] y[103] </args>
        <args> y[103] y[104] </args>
        <args> y[104] y[105] </args>
        <args> y[105] y[106] </args>
        <args> y[106] y[107] </args>
        <args> y[107] y[108] </args>
        <args> y[108] y[109] </args>
        <args> y[109] y[110] </args>
        <args> y[110] y[111] </args>
        <args> y[111] y[112] </args>
        <args> y[112] y[113] </args>
        <args> y[113] y[114] </args>
      </group>
    </block>
    <group>
      <intension> eq(mul(%0,%0),%1) </intension>
      <args> x[0] aux_gb[0] </args>
      <args> x[1] aux_gb[1] </args>
      <args> x[2] aux_gb[2] </args>
      <args> x[3] aux_gb[3] </args>
      <args> x[4] aux_gb[4] </args>
      <args> x[5] aux_gb[5] </args>
      <args> x[6] aux_gb[6] </args>
      <args> x[7] aux_gb[7] </args>
      <args> x[8] aux_gb[8] </args>
      <args> x[9] aux_gb[9] </args>
      <args> x[10] aux_gb[10] </args>
      <args> x[11] aux_gb[11] </args>
      <args> x[12] aux_gb[12] </args>
      <args> x[13] aux_gb[13] </args>
      <args> x[14] aux_gb[14] </args>
      <args> x[15] aux_gb[15] </args>
      <args> x[16] aux_gb[16] </args>
      <args> x[17] aux_gb[17] </args>
      <args> x[18] aux_gb[18] </args>
      <args> x[19] aux_gb[19] </args>
      <args> x[20] aux_gb[20] </args>
      <args> x[21] aux_gb[21] </args>
      <args> x[22] aux_gb[22] </args>
      <args> x[23] aux_gb[23] </args>
      <args> x[24] aux_gb[24] </args>
      <args> x[25] aux_gb[25] </args>
      <args> x[26] aux_gb[26] </args>
      <args> x[27] aux_gb[27] </args>
      <args> x[28] aux_gb[28] </args>
      <args> x[29] aux_gb[29] </args>
      <args> x[30] aux_gb[30] </args>
      <args> x[31] aux_gb[31] </args>
      <args> x[32] aux_gb[32] </args>
      <args> x[33] aux_gb[33] </args>
      <args> x[34] aux_gb[34] </args>
      <args> x[35] aux_gb[35] </args>
      <args> x[36] aux_gb[36] </args>
      <args> x[37] aux_gb[37] </args>
      <args> x[38] aux_gb[38] </args>
      <args> x[39] aux_gb[39] </args>
      <args> x[40] aux_gb[40] </args>
      <args> x[41] aux_gb[41] </args>
      <args> x[42] aux_gb[42] </args>
      <args> x[43] aux_gb[43] </args>
      <args> x[44] aux_gb[44] </args>
      <args> x[45] aux_gb[45] </args>
      <args> x[46] aux_gb[46] </args>
      <args> x[47] aux_gb[47] </args>
      <args> x[48] aux_gb[48] </args>
      <args> x[49] aux_gb[49] </args>
      <args> x[50] aux_gb[50] </args>
      <args> x[51] aux_gb[51] </args>
      <args> x[52] aux_gb[52] </args>
      <args> x[53] aux_gb[53] </args>
      <args> x[54] aux_gb[54] </args>
      <args> x[55] aux_gb[55] </args>
      <args> x[56] aux_gb[56] </args>
      <args> x[57] aux_gb[57] </args>
      <args> x[58] aux_gb[58] </args>
      <args> x[59] aux_gb[59] </args>
      <args> x[60] aux_gb[60] </args>
      <args> x[61] aux_gb[61] </args>
      <args> x[62] aux_gb[62] </args>
      <args> x[63] aux_gb[63] </args>
      <args> x[64] aux_gb[64] </args>
      <args> x[65] aux_gb[65] </args>
      <args> x[66] aux_gb[66] </args>
      <args> x[67] aux_gb[67] </args>
      <args> x[68] aux_gb[68] </args>
      <args> x[69] aux_gb[69] </args>
      <args> x[70] aux_gb[70] </args>
      <args> x[71] aux_gb[71] </args>
      <args> x[72] aux_gb[72] </args>
      <args> x[73] aux_gb[73] </args>
      <args> x[74] aux_gb[74] </args>
      <args> x[75] aux_gb[75] </args>
      <args> x[76] aux_gb[76] </args>
      <args> x[77] aux_gb[77] </args>
      <args> x[78] aux_gb[78] </args>
      <args> x[79] aux_gb[79] </args>
      <args> x[80] aux_gb[80] </args>
      <args> x[81] aux_gb[81] </args>
      <args> x[82] aux_gb[82] </args>
      <args> x[83] aux_gb[83] </args>
      <args> x[84] aux_gb[84] </args>
      <args> x[85] aux_gb[85] </args>
      <args> x[86] aux_gb[86] </args>
      <args> x[87] aux_gb[87] </args>
      <args> x[88] aux_gb[88] </args>
      <args> x[89] aux_gb[89] </args>
      <args> x[90] aux_gb[90] </args>
      <args> x[91] aux_gb[91] </args>
      <args> x[92] aux_gb[92] </args>
      <args> x[93] aux_gb[93] </args>
      <args> x[94] aux_gb[94] </args>
      <args> x[95] aux_gb[95] </args>
      <args> x[96] aux_gb[96] </args>
      <args> x[97] aux_gb[97] </args>
      <args> x[98] aux_gb[98] </args>
      <args> x[99] aux_gb[99] </args>
      <args> x[100] aux_gb[100] </args>
      <args> x[101] aux_gb[101] </args>
      <args> x[102] aux_gb[102] </args>
      <args> x[103] aux_gb[103] </args>
      <args> x[104] aux_gb[104] </args>
      <args> x[105] aux_gb[105] </args>
      <args> x[106] aux_gb[106] </args>
      <args> x[107] aux_gb[107] </args>
      <args> x[108] aux_gb[108] </args>
      <args> x[109] aux_gb[109] </args>
      <args> x[110] aux_gb[110] </args>
      <args> x[111] aux_gb[111] </args>
      <args> x[112] aux_gb[112] </args>
      <args> x[113] aux_gb[113] </args>
      <args> x[114] aux_gb[114] </args>
      <args> y[0] aux_gb[115] </args>
      <args> y[1] aux_gb[116] </args>
      <args> y[2] aux_gb[117] </args>
      <args> y[3] aux_gb[118] </args>
      <args> y[4] aux_gb[119] </args>
      <args> y[5] aux_gb[120] </args>
      <args> y[6] aux_gb[121] </args>
      <args> y[7] aux_gb[122] </args>
      <args> y[8] aux_gb[123] </args>
      <args> y[9] aux_gb[124] </args>
      <args> y[10] aux_gb[125] </args>
      <args> y[11] aux_gb[126] </args>
      <args> y[12] aux_gb[127] </args>
      <args> y[13] aux_gb[128] </args>
      <args> y[14] aux_gb[129] </args>
      <args> y[15] aux_gb[130] </args>
      <args> y[16] aux_gb[131] </args>
      <args> y[17] aux_gb[132] </args>
      <args> y[18] aux_gb[133] </args>
      <args> y[19] aux_gb[134] </args>
      <args> y[20] aux_gb[135] </args>
      <args> y[21] aux_gb[136] </args>
      <args> y[22] aux_gb[137] </args>
      <args> y[23] aux_gb[138] </args>
      <args> y[24] aux_gb[139] </args>
      <args> y[25] aux_gb[140] </args>
      <args> y[26] aux_gb[141] </args>
      <args> y[27] aux_gb[142] </args>
      <args> y[28] aux_gb[143] </args>
      <args> y[29] aux_gb[144] </args>
      <args> y[30] aux_gb[145] </args>
      <args> y[31] aux_gb[146] </args>
      <args> y[32] aux_gb[147] </args>
      <args> y[33] aux_gb[148] </args>
      <args> y[34] aux_gb[149] </args>
      <args> y[35] aux_gb[150] </args>
      <args> y[36] aux_gb[151] </args>
      <args> y[37] aux_gb[152] </args>
      <args> y[38] aux_gb[153] </args>
      <args> y[39] aux_gb[154] </args>
      <args> y[40] aux_gb[155] </args>
      <args> y[41] aux_gb[156] </args>
      <args> y[42] aux_gb[157] </args>
      <args> y[43] aux_gb[158] </args>
      <args> y[44] aux_gb[159] </args>
      <args> y[45] aux_gb[160] </args>
      <args> y[46] aux_gb[161] </args>
      <args> y[47] aux_gb[162] </args>
      <args> y[48] aux_gb[163] </args>
      <args> y[49] aux_gb[164] </args>
      <args> y[50] aux_gb[165] </args>
      <args> y[51] aux_gb[166] </args>
      <args> y[52] aux_gb[167] </args>
      <args> y[53] aux_gb[168] </args>
      <args> y[54] aux_gb[169] </args>
      <args> y[55] aux_gb[170] </args>
      <args> y[56] aux_gb[171] </args>
      <args> y[57] aux_gb[172] </args>
      <args> y[58] aux_gb[173] </args>
      <args> y[59] aux_gb[174] </args>
      <args> y[60] aux_gb[175] </args>
      <args> y[61] aux_gb[176] </args>
      <args> y[62] aux_gb[177] </args>
      <args> y[63] aux_gb[178] </args>
      <args> y[64] aux_gb[179] </args>
      <args> y[65] aux_gb[180] </args>
      <args> y[66] aux_gb[181] </args>
      <args> y[67] aux_gb[182] </args>
      <args> y[68] aux_gb[183] </args>
      <args> y[69] aux_gb[184] </args>
      <args> y[70] aux_gb[185] </args>
      <args> y[71] aux_gb[186] </args>
      <args> y[72] aux_gb[187] </args>
      <args> y[73] aux_gb[188] </args>
      <args> y[74] aux_gb[189] </args>
      <args> y[75] aux_gb[190] </args>
      <args> y[76] aux_gb[191] </args>
      <args> y[77] aux_gb[192] </args>
      <args> y[78] aux_gb[193] </args>
      <args> y[79] aux_gb[194] </args>
      <args> y[80] aux_gb[195] </args>
      <args> y[81] aux_gb[196] </args>
      <args> y[82] aux_gb[197] </args>
      <args> y[83] aux_gb[198] </args>
      <args> y[84] aux_gb[199] </args>
      <args> y[85] aux_gb[200] </args>
      <args> y[86] aux_gb[201] </args>
      <args> y[87] aux_gb[202] </args>
      <args> y[88] aux_gb[203] </args>
      <args> y[89] aux_gb[204] </args>
      <args> y[90] aux_gb[205] </args>
      <args> y[91] aux_gb[206] </args>
      <args> y[92] aux_gb[207] </args>
      <args> y[93] aux_gb[208] </args>
      <args> y[94] aux_gb[209] </args>
      <args> y[95] aux_gb[210] </args>
      <args> y[96] aux_gb[211] </args>
      <args> y[97] aux_gb[212] </args>
      <args> y[98] aux_gb[213] </args>
      <args> y[99] aux_gb[214] </args>
      <args> y[100] aux_gb[215] </args>
      <args> y[101] aux_gb[216] </args>
      <args> y[102] aux_gb[217] </args>
      <args> y[103] aux_gb[218] </args>
      <args> y[104] aux_gb[219] </args>
      <args> y[105] aux_gb[220] </args>
      <args> y[106] aux_gb[221] </args>
      <args> y[107] aux_gb[222] </args>
      <args> y[108] aux_gb[223] </args>
      <args> y[109] aux_gb[224] </args>
      <args> y[110] aux_gb[225] </args>
      <args> y[111] aux_gb[226] </args>
      <args> y[112] aux_gb[227] </args>
      <args> y[113] aux_gb[228] </args>
      <args> y[114] aux_gb[229] </args>
    </group>
  </constraints>
</instance>
